outputs/r110.txt.out
filename: R110
Vehicles: 25, Capacity: 200
Total customers : 101
No of routes: 23
Route #1: 27 28 53 58 40 26
Route #2: 12 80 68 77 3 79 33
Route #3: 81 9
Route #4: 51 71 65 35
Route #5: 78 34
Route #6: 76 50 1
Route #7: 69 29 24 54 55 25
Route #8: 21 73 72 74 22 41
Route #9: 75 56 23 67 39 4
Route #10: 13 94 6 89
Route #11: 95 100 37 92 97
Route #12: 98 59 99 5 60
Route #13: 18
Route #14: 52 83 8 82 7 88
Route #15: 31 70 30 20 66
Route #16: 62 10 90 32
Route #17: 63 11 19 48
Route #18: 45 47 36 49 64
Route #19: 46 17 84 93
Route #20: 85 61 16 44 14
Route #21: 86 38 91 96
Route #22: 87
Route #23: 2 57 15 43 42
Cost 1626
